16 965
525 7 479 7 355 7 106 9 927 13
525 7 479 7 355 7 106 9 927 13
525 7 445 7 264 7 63 9 889 11 721 18
525 7 479 7 358 7 163 9 10 11 784 18
525 7 482 7 365 7 115 9 943 13
525 7 482 7 365 7 115 9 943 13
535 8 492 8 398 9 231 10 69 14 899 50
535 8 492 8 398 9 231 10 69 14 899 50
525 7 479 7 355 7 106 9 927 13
520 7 476 7 355 7 196 12
520 7 476 7 355 7 196 12
535 8 498 8 421 8 313 15
525 7 445 7 357 7 195 9 48 11 872 15 715 22
525 7 504 7 362 7 209 9 25 11 818 15 624 21
525 7 504 7 362 7 209 9 25 11 818 15 624 21
525 7 445 7 264 7 63 9 877 13
